
<<< setup

Tried aggregator 1 time.
LP Presolve eliminated 99 rows and 74 columns.
Reduced LP has 2 rows, 11 columns, and 11 nonzeros.
Presolve time = 0.00 sec. (0.04 ticks)

Iteration log . . .
Iteration:     1   Dual objective     =          1296.743878
main returns 0

<<< main


<<< done

